Normalized Data/p01_14_normalized_splitx10_0.vrp
NAME:p01_14_NORMALIZED_splitx10_
BEST_KNOWN: 0
COMMENT: 0
DIMENSION: 211
CAPACITY: 1000
EDGE_WEIGHT_FORMAT: FUNCTION
EDGE_WEIGHT_TYPE: EXACT_2D
NODE_COORD_SECTION
1 0.00000 0.00000
2 -42 -22
3 -42 -22
4 -42 -22
5 -15 -3
6 -15 -3
7 -15 -3
8 -15 -3
9 -15 -3
10 -15 -3
11 1 -43
12 1 -43
13 1 -43
14 48 50
15 48 50
16 48 50
17 48 50
18 48 50
19 48 50
20 18 20
21 18 20
22 18 20
23 18 20
24 -39 33
25 -39 33
26 -39 33
27 -39 33
28 -39 33
29 -20 -17
30 -20 -17
31 -20 -17
32 -20 -17
33 -20 -17
34 -20 -17
35 40 43
36 40 43
37 40 43
38 40 43
39 40 43
40 40 43
41 -22 43
42 -22 43
43 -22 43
44 -22 43
45 -22 43
46 -22 43
47 39 -43
48 39 -43
49 39 -43
50 -41 9
51 -41 9
52 -41 9
53 -41 9
54 -41 9
55 35 8
56 35 8
57 35 8
58 35 8
59 35 8
60 -13 13
61 -13 13
62 -13 13
63 -13 13
64 -13 13
65 -13 13
66 2 38
67 2 38
68 2 38
69 2 38
70 -39 -23
71 -39 -23
72 -39 -23
73 -46 -4
74 -46 -4
75 -46 -4
76 -46 -4
77 21 45
78 21 45
79 -12 18
80 -12 18
81 -12 18
82 -12 18
83 -25 -6
84 -25 -6
85 -25 -6
86 -25 -6
87 -25 -6
88 -45 46
89 -45 46
90 -45 46
91 -45 46
92 -45 46
93 -45 46
94 -45 46
95 32 -35
96 41 -4
97 41 -4
98 41 -4
99 41 -4
100 4 21
101 4 21
102 4 21
103 -35 -6
104 -35 -6
105 -35 -6
106 -35 -6
107 -35 -6
108 -35 -6
109 29 42
110 29 42
111 29 42
112 29 42
113 38 -50
114 38 -50
115 38 -50
116 38 -50
117 -14 -34
118 -14 -34
119 -14 -34
120 -14 -34
121 26 -31
122 26 -31
123 26 -31
124 -4 20
125 -4 20
126 -4 20
127 5 -29
128 5 -29
129 5 -29
130 39 21
131 39 21
132 39 21
133 39 21
134 39 21
135 47 -49
136 47 -49
137 47 -49
138 47 -49
139 40 18
140 40 18
141 40 18
142 -8 -50
143 -8 -50
144 40 24
145 40 24
146 40 24
147 40 24
148 42 22
149 42 22
150 42 22
151 42 22
152 42 22
153 30 -8
154 30 -8
155 30 -8
156 30 -8
157 -15 26
158 -15 26
159 -15 26
160 33 -23
161 33 -23
162 33 -23
163 33 -23
164 33 -23
165 -34 -23
166 -34 -23
167 -34 -23
168 -34 -23
169 -34 -23
170 -34 -23
171 -38 -6
172 -38 -6
173 -17 -50
174 -17 -50
175 -17 -50
176 -17 -50
177 -17 -50
178 27 -41
179 27 -41
180 27 -41
181 27 -41
182 27 -41
183 -28 -50
184 -28 -50
185 -28 -50
186 -28 -50
187 -28 -50
188 26 -42
189 26 -42
190 26 -42
191 26 -42
192 46 47
193 46 47
194 46 47
195 46 47
196 -34 -49
197 -34 -49
198 -34 -49
199 15 19
200 15 19
201 15 19
202 15 19
203 15 19
204 15 19
205 47 -3
206 47 -3
207 47 -3
208 29 -27
209 29 -27
210 29 -27
211 29 -27
DEMAND_SECTION
1 0
2 200
3 200
4 50
5 200
6 100
7 50
8 10
9 10
10 10
11 200
12 10
13 10
14 200
15 100
16 50
17 10
18 10
19 10
20 200
21 200
22 50
23 10
24 100
25 50
26 10
27 10
28 10
29 200
30 100
31 50
32 10
33 10
34 10
35 200
36 200
37 10
38 10
39 10
40 10
41 200
42 50
43 10
44 10
45 10
46 10
47 200
48 200
49 10
50 200
51 100
52 10
53 10
54 10
55 200
56 200
57 10
58 10
59 10
60 200
61 100
62 10
63 10
64 10
65 10
66 200
67 200
68 10
69 10
70 200
71 200
72 50
73 100
74 50
75 10
76 10
77 200
78 10
79 100
80 10
81 10
82 10
83 200
84 200
85 10
86 10
87 10
88 200
89 200
90 50
91 10
92 10
93 10
94 10
95 200
96 100
97 10
98 10
99 10
100 200
101 200
102 100
103 200
104 200
105 50
106 10
107 10
108 10
109 200
110 100
111 50
112 10
113 100
114 10
115 10
116 10
117 200
118 100
119 50
120 10
121 200
122 10
123 10
124 200
125 100
126 50
127 100
128 50
129 10
130 200
131 50
132 10
133 10
134 10
135 100
136 10
137 10
138 10
139 200
140 200
141 50
142 200
143 200
144 100
145 10
146 10
147 10
148 200
149 200
150 10
151 10
152 10
153 200
154 50
155 10
156 10
157 200
158 100
159 50
160 100
161 50
162 10
163 10
164 10
165 200
166 200
167 10
168 10
169 10
170 10
171 100
172 50
173 200
174 100
175 50
176 10
177 10
178 200
179 100
180 10
181 10
182 10
183 100
184 50
185 10
186 10
187 10
188 100
189 10
190 10
191 10
192 100
193 10
194 10
195 10
196 200
197 200
198 10
199 100
200 50
201 10
202 10
203 10
204 10
205 200
206 200
207 50
208 100
209 50
210 10
211 10
DEPOT_SECTION
1
-1
EOF