Normalized Data/p01_14_normalized_splitx10_0.sol
210 -5 4 82 83 29 28 -8 6 102 104 105 107 106 171 170 74 72 75 73 49 50 52 53 51 -9 7 86 84 85 3 2 1 71 70 69 30 -21 22 19 20 198 202 200 203 199 201 99 101 -23 25 26 27 24 90 92 88 89 87 91 93 43 41 40 45 44 42 -31 32 33 197 195 196 183 182 186 184 185 176 173 175 174 172 -34 37 38 35 36 39 18 15 13 17 16 14 191 192 193 194 -56 54 55 57 204 206 205 98 96 95 97 -58 138 139 140 147 149 150 151 148 -63 61 62 64 59 60 158 156 157 79 78 81 80 -77 76 110 109 111 108 145 144 146 143 130 129 132 131 133 -100 67 65 66 68 124 125 123 -103 164 167 165 166 169 168 118 116 117 119 -113 114 112 115 137 136 135 134 47 46 48 94 210 207 209 -120 10 11 12 141 142 127 126 128 -154 153 155 152 160 162 163 161 159 208 122 121 177 178 179 181 180 189 187 188 190 0 





OBJ=
1703.620
BEST_KNOWN=
0.000